
Gurobi 11.0.0 (linux64) logging started Tue Sep 17 04:10:46 2024

Set parameter LogFile to value "gurobi.log"
Set parameter InfUnbdInfo to value 1
Gurobi Optimizer version 11.0.0 build v11.0.0rc2 (linux64 - "Ubuntu 22.04.4 LTS")

CPU model: AMD EPYC 7V13 64-Core Processor, instruction set [SSE2|AVX|AVX2]
Thread count: 128 physical cores, 128 logical processors, using up to 32 threads

Optimize a model with 31 rows, 339 columns and 104 nonzeros
Model fingerprint: 0xc3c53bb9
Model has 334 quadratic constraints
Model has 1 general constraint
Variable types: 91 continuous, 248 integer (0 binary)
Coefficient statistics:
  Matrix range     [1e+00, 5e+04]
  QMatrix range    [1e+00, 5e+04]
  QLMatrix range   [1e+00, 5e+04]
  Objective range  [1e+00, 1e+00]
  Bounds range     [1e+00, 5e+11]
  RHS range        [1e+00, 1e+00]
  QRHS range       [1e+00, 2e+06]
Warning: Model contains large bounds
         Consider reformulating model or setting NumericFocus parameter
         to avoid numerical issues.
Using branch priorities (all 0).
Presolve added 18 rows and 0 columns
Presolve removed 0 rows and 34 columns
Presolve time: 0.01s
Presolved: 1149 rows, 469 columns, 2980 nonzeros
Presolved model has 28 SOS constraint(s)
Presolved model has 198 bilinear constraint(s)
Warning: Model contains variables with very large bounds participating
         in product terms.
         Presolve was not able to compute smaller bounds for these variables.
         Consider bounding these variables or reformulating the model.


Solving non-convex MIQCP

Variable types: 132 continuous, 337 integer (129 binary)

Root relaxation: objective 6.040801e+03, 104 iterations, 0.00 seconds (0.00 work units)

    Nodes    |    Current Node    |     Objective Bounds      |     Work
 Expl Unexpl |  Obj  Depth IntInf | Incumbent    BestBd   Gap | It/Node Time

     0     0 6040.80100    0   56          - 6040.80100      -     -    0s
     0     0 6040.80100    0   59          - 6040.80100      -     -    0s
H    0     0                    124005.00000 6040.80100  95.1%     -    0s
H    0     0                    112005.00000 6040.80100  94.6%     -    0s
     0     0 6100.54599    0   87 112005.000 6100.54599  94.6%     -    0s
     0     0 6100.54599    0   83 112005.000 6100.54599  94.6%     -    0s
H    0     0                    102855.00000 6255.54599  93.9%     -    0s
     0     0 6276.58751    0   87 102855.000 6276.58751  93.9%     -    0s
H    0     0                    99865.000000 6276.58783  93.7%     -    0s
H    0     0                    87865.000000 6276.58783  92.9%     -    0s
     0     0 6276.67341    0  107 87865.0000 6276.67341  92.9%     -    0s
     0     0 6276.68733    0   81 87865.0000 6276.68733  92.9%     -    0s
     0     0 6276.68733    0   84 87865.0000 6276.68733  92.9%     -    0s
     0     0 6276.68733    0   84 87865.0000 6276.68733  92.9%     -    0s
     0     0 6490.00000    0   45 87865.0000 6490.00000  92.6%     -    0s
H    0     0                    78055.000000 6490.00000  91.7%     -    0s
     0     0 6490.00000    0   32 78055.0000 6490.00000  91.7%     -    0s
     0     0 6490.00000    0   80 78055.0000 6490.00000  91.7%     -    0s
H    0     0                    58625.000000 6490.00000  88.9%     -    0s
     0     0 6490.00000    0   73 58625.0000 6490.00000  88.9%     -    0s
     0     0 6735.00000    0   59 58625.0000 6735.00000  88.5%     -    0s
     0     0 7414.00000    0   65 58625.0000 7414.00000  87.4%     -    0s
H    0     0                    58575.000000 7414.00000  87.3%     -    0s
     0     0 7524.57453    0   68 58575.0000 7524.57453  87.2%     -    0s
     0     0 7551.37604    0   51 58575.0000 7551.37604  87.1%     -    0s
H    0     0                    58455.000000 7551.37604  87.1%     -    0s
     0     0 7558.24536    0   73 58455.0000 7558.24536  87.1%     -    0s
     0     0 7561.90536    0   86 58455.0000 7561.90536  87.1%     -    0s
H    0     0                    57875.000000 7561.90536  86.9%     -    0s
H    0     0                    19875.000000 7561.90536  62.0%     -    0s
     0     0 7564.40536    0   86 19875.0000 7564.40536  61.9%     -    0s
     0     0 7566.89576    0   54 19875.0000 7566.89576  61.9%     -    0s
     0     0 7566.89576    0   47 19875.0000 7566.89576  61.9%     -    0s
     0     0 7566.89576    0   47 19875.0000 7566.89576  61.9%     -    0s
     0     0 7566.89576    0   20 19875.0000 7566.89576  61.9%     -    0s
     0     0 7566.89576    0   38 19875.0000 7566.89576  61.9%     -    0s
     0     0 7566.89576    0   52 19875.0000 7566.89576  61.9%     -    0s
     0     0 7566.89576    0   53 19875.0000 7566.89576  61.9%     -    0s
     0     0 8240.16472    0   43 19875.0000 8240.16472  58.5%     -    0s
     0     0 8240.65283    0   71 19875.0000 8240.65283  58.5%     -    0s
H    0     0                    19755.000000 8245.83333  58.3%     -    0s
     0     0 8245.83333    0   71 19755.0000 8245.83333  58.3%     -    0s
H    0     0                    19705.000000 8245.83333  58.2%     -    1s
     0     0 8246.98640    0   44 19705.0000 8246.98640  58.1%     -    1s
     0     0 8246.98674    0   61 19705.0000 8246.98674  58.1%     -    1s
     0     0 8246.99647    0   65 19705.0000 8246.99647  58.1%     -    1s
     0     0 8815.66949    0   66 19705.0000 8815.66949  55.3%     -    1s
     0     0 9519.11110    0   66 19705.0000 9519.11110  51.7%     -    1s
     0     0 9687.00000    0   40 19705.0000 9687.00000  50.8%     -    1s
     0     0 9711.82194    0   45 19705.0000 9711.82194  50.7%     -    1s
     0     0 9762.87752    0   60 19705.0000 9762.87752  50.5%     -    1s
     0     0 10107.0000    0   53 19705.0000 10107.0000  48.7%     -    1s
     0     0 10124.1441    0   53 19705.0000 10124.1441  48.6%     -    1s
     0     0 10687.0000    0   62 19705.0000 10687.0000  45.8%     -    1s
     0     0 10692.8827    0   63 19705.0000 10692.8827  45.7%     -    1s
     0     0 10765.6253    0   63 19705.0000 10765.6253  45.4%     -    1s
     0     0 10807.0000    0   58 19705.0000 10807.0000  45.2%     -    1s
     0     0 10807.0000    0   47 19705.0000 10807.0000  45.2%     -    1s
     0     0 10807.0000    0   22 19705.0000 10807.0000  45.2%     -    1s
     0     0 10807.0000    0   67 19705.0000 10807.0000  45.2%     -    1s
     0     0 10807.0000    0   34 19705.0000 10807.0000  45.2%     -    1s
     0     0 10807.0000    0   34 19705.0000 10807.0000  45.2%     -    1s
     0     0 10807.0000    0   55 19705.0000 10807.0000  45.2%     -    1s
     0     0 10807.0000    0   55 19705.0000 10807.0000  45.2%     -    1s
     0     0 10807.0000    0   55 19705.0000 10807.0000  45.2%     -    2s
     0     0 10807.0000    0   59 19705.0000 10807.0000  45.2%     -    2s
     0     0 10807.0000    0   62 19705.0000 10807.0000  45.2%     -    2s
     0     0 10807.0000    0   62 19705.0000 10807.0000  45.2%     -    2s
     0     0 10807.0000    0   53 19705.0000 10807.0000  45.2%     -    2s
     0     2 10807.0000    0   53 19705.0000 10807.0000  45.2%     -    2s

Cutting planes:
  Gomory: 2
  Implied bound: 6
  MIR: 28
  StrongCG: 1
  Zero half: 4
  RLT: 14
  Relax-and-lift: 1

Explored 89 nodes (2499 simplex iterations) in 2.58 seconds (0.18 work units)
Thread count was 32 (of 128 available processors)

Solution count 10: 19705 19755 19875 ... 87865

Optimal solution found (tolerance 1.00e-10)
Best objective 1.970500000000e+04, best bound 1.970500000000e+04, gap 0.0000%
